1120.4 0
0 12 54 55 25 67 39 0
0 62 11 64 49 36 47 46 8 0
0 87 42 14 44 38 43 15 57 0
0 52 88 7 19 48 82 18 0
0 40 73 75 23 56 4 26 0
0 51 9 71 65 35 34 78 79 0
0 89 5 93 59 99 96 0
0 27 69 70 20 66 81 33 50 0
0 53 21 72 74 22 41 2 58 0
0 97 37 100 91 85 98 92 95 0
0 6 61 16 86 17 84 45 83 60 0
0 94 13 0
0 1 30 32 90 63 10 31 0
0 28 68 80 24 29 3 77 76 0
